 vasp.5.4.4.18Apr17-6-g9f103f2a35 (build Oct 14 2019 14:20:28) complex

 executed on             LinuxIFC date 2021.05.11  10:58:34

 INCAR:
 POTCAR:    PAW_PBE C 08Apr2002

 POTCAR:    PAW_PBE C 08Apr2002
   VRHFIN =C: s2p2

   TITEL  = PAW_PBE C 08Apr2002
   POMASS =   12.011; ZVAL   =    4.000    mass and valenz
   ENMAX  =  400.000; ENMIN  =  300.000 eV

  PAW_PBE C 08Apr2002                   :

 POSCAR: diamond
  positions in direct lattice
 exchange correlation table for  LEXCH =        8
   RHO(1)=    0.500       N(1)  =     2000
   RHO(2)=  100.500       N(2)  =     4000

 ion  position               nearest neighbor table
   1  0.000  0.000  0.000-   5 1.54   7 1.54   8 1.54   6 1.54
   2  0.000  0.500  0.500-   6 1.54   5 1.54   8 1.54   7 1.54
   3  0.500  0.500  0.000-   6 1.54   5 1.54   7 1.54   8 1.54
   4  0.500  0.000  0.500-   6 1.54   7 1.54   8 1.54   5 1.54
   5  0.750  0.250  0.750-   1 1.54   2 1.54   3 1.54   4 1.54
   6  0.250  0.250  0.250-   1 1.54   2 1.54   3 1.54   4 1.54
   7  0.250  0.750  0.750-   1 1.54   3 1.54   4 1.54   2 1.54
   8  0.750  0.750  0.250-   1 1.54   2 1.54   4 1.54   3 1.54

  LATTYP: Found a simple cubic cell.
 ALAT       =     3.5559999943

  Lattice vectors:

 A1 = (   3.5559999943,   0.0000000000,   0.0000000000)
 A2 = (   0.0000000000,   3.5559999943,   0.0000000000)
 A3 = (   0.0000000000,   0.0000000000,   3.5559999943)

Analysis of symmetry for initial positions (statically):
 Subroutine PRICEL returns following result:

  LATTYP: Found a face centered cubic cell.
 ALAT       =     3.5559999943

[...]

   4 primitive cells build up your supercell.

 Routine SETGRP: Setting up the symmetry group for a
 simple cubic supercell.

 Subroutine GETGRP returns: Found 48 space group operations
 (whereof 24 operations were pure point group operations)
 out of a pool of 48 trial point group operations.

The static configuration has the point symmetry T_d .
 The point group associated with its full space group is O_h .

Analysis of symmetry for dynamics (positions and initial velocities):
 Subroutine PRICEL returns following result:

  LATTYP: Found a face centered cubic cell.
 ALAT       =     3.5559999943

  Lattice vectors:

 A1 = (   1.7779999972,   1.7779999972,   0.0000000000)
 A2 = (   1.7779999972,   0.0000000000,  -1.7779999971)
 A3 = (   0.0000000000,   1.7779999972,  -1.7779999971)

   4 primitive cells build up your supercell.

 Routine SETGRP: Setting up the symmetry group for a
 simple cubic supercell.

 Subroutine GETGRP returns: Found 48 space group operations
 (whereof 24 operations were pure point group operations)
 out of a pool of 48 trial point group operations.

The dynamic configuration has the point symmetry T_d .
 The point group associated with its full space group is O_h .

 Subroutine INISYM returns: Found 48 space group operations
 (whereof 24 operations are pure point group operations),
 and found     4 'primitive' translations

 KPOINTS: Generate k-mesh automatically

Automatic generation of k-mesh.
Space group operators:
 irot       det(A)        alpha          n_x          n_y          n_z        tau_x        tau_y        tau_z
    1     1.000000     0.000000     1.000000     0.000000     0.000000     0.000000     0.000000     0.000000
    2     1.000000   120.000000    -0.577350    -0.577350    -0.577350     0.000000     0.000000     0.000000
    3     1.000000   120.000000     0.577350     0.577350     0.577350     0.000000     0.000000     0.000000
    4    -1.000000    90.000000     0.000000     0.000000    -1.000000     0.000000     0.000000     0.000000
    5    -1.000000   180.000000     0.000000     0.707107     0.707107     0.000000     0.000000     0.000000
    6    -1.000000    90.000000     0.000000     1.000000     0.000000     0.000000     0.000000     0.000000
    7     1.000000   180.000000     0.000000     0.000000     1.000000     0.000000     0.000000     0.000000
    8     1.000000   120.000000    -0.577350     0.577350     0.577350     0.000000     0.000000     0.000000
    9     1.000000   120.000000    -0.577350     0.577350    -0.577350     0.000000     0.000000     0.000000
   10    -1.000000    90.000000     0.000000     0.000000     1.000000     0.000000     0.000000     0.000000
   11    -1.000000    90.000000    -1.000000     0.000000     0.000000     0.000000     0.000000     0.000000
   12    -1.000000   180.000000     0.707107     0.000000     0.707107     0.000000     0.000000     0.000000
   13     1.000000   120.000000     0.577350    -0.577350     0.577350     0.000000     0.000000     0.000000
   14     1.000000   120.000000    -0.577350    -0.577350     0.577350     0.000000     0.000000     0.000000
   15     1.000000   180.000000     1.000000     0.000000     0.000000     0.000000     0.000000     0.000000
   16    -1.000000    90.000000     0.000000    -1.000000     0.000000     0.000000     0.000000     0.000000
   17    -1.000000   180.000000     0.707107     0.707107     0.000000     0.000000     0.000000     0.000000
   18    -1.000000    90.000000     1.000000     0.000000     0.000000     0.000000     0.000000     0.000000
   19     1.000000   120.000000     0.577350    -0.577350    -0.577350     0.000000     0.000000     0.000000
   20     1.000000   180.000000     0.000000     1.000000     0.000000     0.000000     0.000000     0.000000
   21     1.000000   120.000000     0.577350     0.577350    -0.577350     0.000000     0.000000     0.000000
   22    -1.000000   180.000000     0.000000    -0.707107     0.707107     0.000000     0.000000     0.000000
   23    -1.000000   180.000000     0.707107    -0.707107     0.000000     0.000000     0.000000     0.000000
   24    -1.000000   180.000000     0.707107     0.000000    -0.707107     0.000000     0.000000     0.000000
   25    -1.000000     0.000000     1.000000     0.000000     0.000000     0.750000     0.750000    -0.750000
   26    -1.000000   120.000000    -0.577350    -0.577350    -0.577350     0.750000     0.750000    -0.750000
   27    -1.000000   120.000000     0.577350     0.577350     0.577350     0.750000     0.750000    -0.750000
   28     1.000000    90.000000     0.000000     0.000000    -1.000000     0.750000     0.750000    -0.750000
   29     1.000000   180.000000     0.000000     0.707107     0.707107     0.750000     0.750000    -0.750000
   30     1.000000    90.000000     0.000000     1.000000     0.000000     0.750000     0.750000    -0.750000
   31    -1.000000   180.000000     0.000000     0.000000     1.000000     0.750000     0.750000    -0.750000
   32    -1.000000   120.000000    -0.577350     0.577350     0.577350     0.750000     0.750000    -0.750000
   33    -1.000000   120.000000    -0.577350     0.577350    -0.577350     0.750000     0.750000    -0.750000
   34     1.000000    90.000000     0.000000     0.000000     1.000000     0.750000     0.750000    -0.750000
   35     1.000000    90.000000    -1.000000     0.000000     0.000000     0.750000     0.750000    -0.750000
   36     1.000000   180.000000     0.707107     0.000000     0.707107     0.750000     0.750000    -0.750000
   37    -1.000000   120.000000     0.577350    -0.577350     0.577350     0.750000     0.750000    -0.750000
   38    -1.000000   120.000000    -0.577350    -0.577350     0.577350     0.750000     0.750000    -0.750000
   39    -1.000000   180.000000     1.000000     0.000000     0.000000     0.750000     0.750000    -0.750000
   40     1.000000    90.000000     0.000000    -1.000000     0.000000     0.750000     0.750000    -0.750000
   41     1.000000   180.000000     0.707107     0.707107     0.000000     0.750000     0.750000    -0.750000
   42     1.000000    90.000000     1.000000     0.000000     0.000000     0.750000     0.750000    -0.750000
   43    -1.000000   120.000000     0.577350    -0.577350    -0.577350     0.750000     0.750000    -0.750000
   44    -1.000000   180.000000     0.000000     1.000000     0.000000     0.750000     0.750000    -0.750000
   45    -1.000000   120.000000     0.577350     0.577350    -0.577350     0.750000     0.750000    -0.750000
   46     1.000000   180.000000     0.000000    -0.707107     0.707107     0.750000     0.750000    -0.750000
   47     1.000000   180.000000     0.707107    -0.707107     0.000000     0.750000     0.750000    -0.750000
   48     1.000000   180.000000     0.707107     0.000000    -0.707107     0.750000     0.750000    -0.750000

 Subroutine IBZKPT returns following result:

 Found    120 irreducible k-points:

 Following reciprocal coordinates:
            Coordinates               Weight
  0.000000  0.000000  0.000000      1.000000
  0.066667  0.000000  0.000000      6.000000
  0.133333  0.000000  0.000000      6.000000
  0.200000  0.000000  0.000000      6.000000
  0.266667  0.000000  0.000000      6.000000
  0.333333  0.000000  0.000000      6.000000
  0.400000  0.000000  0.000000      6.000000
  0.466667  0.000000  0.000000      6.000000
  0.066667  0.066667  0.000000     12.000000
  0.133333  0.066667  0.000000     24.000000
  0.200000  0.066667  0.000000     24.000000
  0.266667  0.066667  0.000000     24.000000
  0.333333  0.066667  0.000000     24.000000
  0.400000  0.066667  0.000000     24.000000
  0.466667  0.066667  0.000000     24.000000
  0.133333  0.133333  0.000000     12.000000
  0.200000  0.133333  0.000000     24.000000
  0.266667  0.133333  0.000000     24.000000
  0.333333  0.133333  0.000000     24.000000
  0.400000  0.133333  0.000000     24.000000
  0.466667  0.133333  0.000000     24.000000
  0.200000  0.200000  0.000000     12.000000
  0.266667  0.200000  0.000000     24.000000
  0.333333  0.200000  0.000000     24.000000
  0.400000  0.200000  0.000000     24.000000
  0.466667  0.200000  0.000000     24.000000
  0.266667  0.266667  0.000000     12.000000
  0.333333  0.266667  0.000000     24.000000
  0.400000  0.266667  0.000000     24.000000
  0.466667  0.266667  0.000000     24.000000
  0.333333  0.333333  0.000000     12.000000
  0.400000  0.333333  0.000000     24.000000
  0.466667  0.333333  0.000000     24.000000
  0.400000  0.400000  0.000000     12.000000
  0.466667  0.400000  0.000000     24.000000
  0.466667  0.466667  0.000000     12.000000
  0.066667  0.066667  0.066667      8.000000
  0.133333  0.066667  0.066667     24.000000
  0.200000  0.066667  0.066667     24.000000
  0.266667  0.066667  0.066667     24.000000
  0.333333  0.066667  0.066667     24.000000
  0.400000  0.066667  0.066667     24.000000
  0.466667  0.066667  0.066667     24.000000
  0.133333  0.133333  0.066667     24.000000
  0.200000  0.133333  0.066667     48.000000
  0.266667  0.133333  0.066667     48.000000
  0.333333  0.133333  0.066667     48.000000
  0.400000  0.133333  0.066667     48.000000
  0.466667  0.133333  0.066667     48.000000
  0.200000  0.200000  0.066667     24.000000
  0.266667  0.200000  0.066667     48.000000
  0.333333  0.200000  0.066667     48.000000
  0.400000  0.200000  0.066667     48.000000
  0.466667  0.200000  0.066667     48.000000
  0.266667  0.266667  0.066667     24.000000
  0.333333  0.266667  0.066667     48.000000
  0.400000  0.266667  0.066667     48.000000
[...]

[...]

 soft charge-density along one line, spin component           1
         0         1         2         3         4         5         6         7         8         9
 total charge-density along one line

------------------------ aborting loop because EDIFF is reached ----------------------------------------

  Hirshfeld charges:
            ion         q(e)
      1     C           0.000
      2     C          -0.000
      3     C          -0.000
      4     C          -0.000
      5     C           0.000
      6     C           0.000
      7     C           0.000
      8     C           0.000

  Atomic reference data used in the T-S method for vdW correction:
            C6at              R0at           ALPHAat      REFSTATE
            (au)              (au)            (au)
   C          46.600          3.590         12.000         0

  Tkatchenko/Scheffler method for vdW energy calculation

  Parameters of vdW forcefield:
            C6ts              R0ts           ALPHAts        RELVOL
            (au)              (au)            (au)
   C          38.432          3.477         10.898          0.908
   C          38.432          3.477         10.898          0.908
   C          38.432          3.477         10.898          0.908
   C          38.432          3.477         10.898          0.908
   C          38.432          3.477         10.898          0.908
   C          38.432          3.477         10.898          0.908
   C          38.432          3.477         10.898          0.908
   C          38.432          3.477         10.898          0.908

  IVDW = 202
  VDW_RADIUS =    50.000 A
  VDW_SR =     0.830
  VDW_D =     6.000
  SCSRAD =   120.000 A
  LSCSGRAD = T
  LSCALER0 = T
  Edisp (eV):   -1.75547

  FORCE on cell =-STRESS in cart. coord.  units (eV):
  Direction    XX          YY          ZZ          XY          YZ          ZX
  Alpha Z   116.91896   116.91896   116.91896
  Ewald    -465.35512  -465.35512  -465.35512    -0.00002    -0.00002    -0.00002
  Hartree    35.03222    35.03222    35.03222    -0.00000    -0.00000    -0.00000
  E(xc)    -122.01018  -122.01018  -122.01018     0.00000     0.00000     0.00000
  Local     -43.88308   -43.88308   -43.88308     0.00001     0.00001     0.00001
  n-local   -28.77984   -29.54879   -29.00690     0.68495     0.81269     0.40535
  augment    -2.92857    -2.92857    -2.92857     0.00000     0.00000     0.00000
  Kinetic   501.57617   517.79386   519.37904    -4.92028    -6.60311    -3.47003
  Fock        0.00000     0.00000     0.00000     0.00000     0.00000     0.00000
  vdW        -0.16142    -1.55569    -2.56286     0.31739     0.22780     0.18439
  Total       0.15207     0.15207     0.15207    -0.00000    -0.00000     0.00000
  in kB       5.41852     5.41852     5.41852    -0.00000    -0.00000     0.00000

 VOLUME and BASIS-vectors are now :
  energy-cutoff  :      650.00
  volume of cell :       44.97
      direct lattice vectors                 reciprocal lattice vectors
     3.555999994  0.000000000  0.000000000     0.281214849  0.000000000  0.000000000
     0.000000000  3.555999994  0.000000000     0.000000000  0.281214849  0.000000000
     0.000000000  0.000000000  3.555999994     0.000000000  0.000000000  0.281214849

[...]

 FORCES acting on ions
    electron-ion (+dipol)            ewald-force                    non-local-force                 convergence-correction
   -.620E-07 -.620E-07 -.620E-07   0.259E-05 0.259E-05 0.259E-05   0.347E-17 -.607E-17 -.867E-18   0.148E-09 0.148E-09 0.148E-09
   -.620E-07 -.620E-07 -.620E-07   0.259E-05 0.259E-05 0.259E-05   0.104E-16 -.173E-16 -.781E-17   0.148E-09 0.148E-09 0.148E-09
   -.620E-07 -.620E-07 -.620E-07   0.259E-05 0.259E-05 0.259E-05   -.104E-16 -.147E-16 -.260E-17   0.148E-09 0.148E-09 0.148E-09
   -.620E-07 -.620E-07 -.620E-07   0.259E-05 0.259E-05 0.259E-05   -.347E-17 -.356E-16 0.781E-17   0.148E-09 0.148E-09 0.148E-09
   -.147E-04 -.126E-06 -.147E-04   -.105E-04 0.528E-05 -.105E-04   -.234E-16 0.282E-16 0.347E-17   0.128E-07 -.138E-07 0.128E-07
   -.126E-06 -.126E-06 -.126E-06   0.528E-05 0.528E-05 0.528E-05   -.867E-18 0.139E-16 0.104E-16   -.138E-07 -.138E-07 -.138E-07
   -.126E-06 -.147E-04 -.147E-04   0.528E-05 -.105E-04 -.105E-04   0.113E-16 0.334E-16 -.694E-17   -.138E-07 0.128E-07 0.128E-07
   -.147E-04 -.147E-04 -.126E-06   -.105E-04 -.105E-04 0.528E-05   -.954E-17 0.867E-17 0.000E+00   0.128E-07 0.128E-07 -.138E-07
   -.300E-04 -.300E-04 -.300E-04   0.390E-15 0.748E-14 0.318E-15   -.226E-16 0.104E-16 0.347E-17   -.147E-08 -.147E-08 -.147E-08

 POSITION                                       TOTAL-FORCE (eV/Angst)
      0.00000      0.00000      0.00000        -0.000000     -0.000000     -0.000000
      0.00000      1.77800      1.77800        -0.000000      0.000000     -0.000000
      1.77800      1.77800      0.00000        -0.000000      0.000000     -0.000000
      1.77800      0.00000      1.77800        -0.000000     -0.000000     -0.000000
      2.66700      0.88900      2.66700         0.000000     -0.000000      0.000000
      0.88900      0.88900      0.88900         0.000000      0.000000      0.000000
      0.88900      2.66700      2.66700         0.000000     -0.000000      0.000000
      2.66700      2.66700      0.88900         0.000000     -0.000000      0.000000
    total drift:                               -0.000030     -0.000030     -0.000030

  FREE ENERGIE OF THE ION-ELECTRON SYSTEM (eV)
  free  energy   TOTEN  =       -74.51903537 eV

  energy  without entropy=      -74.51903537  energy(sigma->0) =      -74.51903537

[...]

  Parameters of vdW forcefield:
            C6ts              R0ts           ALPHAts        RELVOL
            (au)              (au)            (au)
   C          38.440          3.477         10.899          0.908
   C          38.440          3.477         10.899          0.908
   C          38.440          3.477         10.899          0.908
   C          38.440          3.477         10.899          0.908
   C          38.440          3.477         10.899          0.908
   C          38.440          3.477         10.899          0.908
   C          38.440          3.477         10.899          0.908
   C          38.440          3.477         10.899          0.908
  Edisp (eV):   -1.75170

[...]

 d Force = 0.0000000E+00[ 0.000E+00, 0.000E+00]  d Energy = 0.8114345E-04-0.811E-04
 d Force = 0.0000000E+00[ 0.000E+00, 0.000E+00]  d Ewald  =-0.1279097E+01 0.128E+01

 Steepest descent step on ions:
 trial-energy change:   -0.000081  1 .order    0.000060   -0.000418    0.000539
  (g-gl).g = 0.418E-03      g.g   = 0.418E-03  gl.gl    = 0.000E+00
 g(Force)  = 0.631E-37   g(Stress)= 0.418E-03 ortho     = 0.000E+00
 gamma     =   0.00000
 trial     =   1.00000
 opt step  =   0.64101  (harmonic =   0.43691) maximal distance =0.00000000
 next E    =   -74.519207   (d E  =  -0.00017)

[...]

 d Force = 0.0000000E+00[ 0.000E+00, 0.000E+00]  d Energy = 0.7674433E-04-0.767E-04
 d Force = 0.0000000E+00[ 0.000E+00, 0.000E+00]  d Ewald  = 0.4589086E+00-0.459E+00

[...]

 eigenvalues of (default mixing * dielectric matrix)
  average eigenvalue GAMMA=   1.3839
  2.1670  0.6008

[...]

 d Force = 0.0000000E+00[ 0.000E+00, 0.000E+00]  d Energy =-0.5209856E-05 0.521E-05
 d Force = 0.0000000E+00[ 0.000E+00, 0.000E+00]  d Ewald  = 0.2602706E+00-0.260E+00

[...]

 d Force = 0.0000000E+00[ 0.000E+00, 0.000E+00]  d Energy = 0.8066741E-06-0.807E-06
 d Force = 0.0000000E+00[ 0.000E+00, 0.000E+00]  d Ewald  = 0.4021148E-02-0.402E-02

[...]

 d Force = 0.0000000E+00[ 0.000E+00, 0.000E+00]  d Energy =-0.5871392E-06 0.587E-06
 d Force = 0.0000000E+00[ 0.000E+00, 0.000E+00]  d Ewald  = 0.4195053E-02-0.420E-02

[...]

 d Force = 0.0000000E+00[ 0.000E+00, 0.000E+00]  d Energy =-0.5343847E-06 0.534E-06
 d Force = 0.0000000E+00[ 0.000E+00, 0.000E+00]  d Ewald  =-0.2232752E-02 0.223E-02

[...]

 eigenvalue-minimisations  :  4860
 total energy-change (2. order) :-0.2302925E-05  (-0.1360160E-09)
 number of electron      31.9999990 magnetization
 augmentation part        0.7635837 magnetization

 Broyden mixing:
  rms(total) = 0.29483E-05    rms(broyden)= 0.29473E-05
  rms(prec ) = 0.52806E-05
  weight for this iteration     100.00

[...]

--------------------------------------- Iteration      8(   2)  ---------------------------------------

 BZINTS: Fermi energy:  9.909438; 32.000000 electrons
         Band energy:  26.204249;  BLOECHL correction:  0.000000

 eigenvalue-minimisations  :  4820
 total energy-change (2. order) : 0.1730314E-08  (-0.1861645E-11)
 number of electron      31.9999990 magnetization
 augmentation part        0.7635837 magnetization

 Free energy of the ion-electron system (eV)
  alpha Z        PSCENC =       116.77964702
  Ewald energy   TEWEN  =     -1395.50829081
  -Hartree energ DENC   =      -105.16179888
  -exchange      EXHF   =         0.00000000
  -V(xc)+E(xc)   XCENC  =       113.05693948
  PAW double counting   =      3079.27934867    -3084.62783018
  entropy T*S    EENTRO =         0.00000000
  eigenvalues    EBANDS =        26.20424858
  atomic energy  EATOM  =      1177.21238794
  Solvation  Ediel_sol  =         0.00000000
  free energy    TOTEN  =       -72.76534818 eV

  energy without entropy =      -72.76534818  energy(sigma->0) =      -72.76534818

 average (electrostatic) potential at core
  the test charge radii are     0.6991
  (the norm of the test charge is              1.0000)
       1 -45.2752       2 -45.2752       3 -45.2752       4 -45.2752       5 -45.2752
       6 -45.2752       7 -45.2752       8 -45.2752

 E-fermi :   9.9094     XC(G=0): -13.2901     alpha+bet :-17.8096

[...]

 k-point   120 :       0.4667    0.4667    0.4667
  band No.  band energies     occupation
      1      -6.2013      2.00000
      2      -5.9316      2.00000
      3      -5.9316      2.00000
      4      -5.9316      2.00000
      5      -3.5528      2.00000
      6      -3.5528      2.00000
      7      -3.5528      2.00000
      8      -3.2876      2.00000
      9       6.9107      2.00000
     10       6.9107      2.00000
     11       6.9107      2.00000
     12       6.9611      2.00000
     13       6.9611      2.00000
     14       6.9611      2.00000
     15       7.0403      2.00000
     16       7.0403      2.00000
     17      18.2802      0.00000
     18      18.2802      0.00000
     19      18.2802      0.00000
     20      18.3312      0.00000
     21      18.3312      0.00000
     22      18.4400      0.00000
     23      18.4400      0.00000
     24      18.4400      0.00000
     25      18.7850      0.00000
     26      18.8921      0.00000
     27      18.8921      0.00000
     28      18.8921      0.00000
     29      25.5977      0.00000
     30      25.6103      0.00000
     31      25.6103      0.00000
     32      25.6103      0.00000
     33      31.7104      0.00000
     34      31.7104      0.00000
     35      31.7104      0.00000
     36      31.7521      0.00000
     37      34.1843      0.00000
     38      34.1843      0.00000
     39      34.1843      0.00000
     40      34.2639      0.00000

 soft charge-density along one line, spin component           1
         0         1         2         3         4         5         6         7         8         9
 total charge-density along one line

------------------------ aborting loop because EDIFF is reached ----------------------------------------

  Hirshfeld charges:
            ion         q(e)
      1     C           0.000
      2     C          -0.000
      3     C          -0.000
      4     C          -0.000
      5     C           0.000
      6     C           0.000
      7     C           0.000
      8     C           0.000

  Tkatchenko/Scheffler method for vdW energy calculation

  Parameters of vdW forcefield:
            C6ts              R0ts           ALPHAts        RELVOL
            (au)              (au)            (au)
   C          38.435          3.477         10.898          0.908
   C          38.435          3.477         10.898          0.908
   C          38.435          3.477         10.898          0.908
   C          38.435          3.477         10.898          0.908
   C          38.435          3.477         10.898          0.908
   C          38.435          3.477         10.898          0.908
   C          38.435          3.477         10.898          0.908
   C          38.435          3.477         10.898          0.908
  Edisp (eV):   -1.75384

  FORCE on cell =-STRESS in cart. coord.  units (eV):
  Direction    XX          YY          ZZ          XY          YZ          ZX
  Alpha Z   116.77965   116.77965   116.77965
  Ewald    -465.17022  -465.17022  -465.17022    -0.00002    -0.00002    -0.00002
  Hartree    35.05395    35.05395    35.05395    -0.00000    -0.00000    -0.00000
  E(xc)    -121.97713  -121.97713  -121.97713     0.00000     0.00000     0.00000
  Local     -43.96287   -43.96287   -43.96287     0.00001     0.00001     0.00001
  n-local   -28.73031   -29.49983   -28.95260     0.68561     0.81377     0.40597
  augment    -2.92387    -2.92387    -2.92387     0.00000     0.00000     0.00000
  Kinetic   501.36004   517.56775   519.13306    -4.91944    -6.60275    -3.46977
  Fock        0.00000     0.00000     0.00000     0.00000     0.00000     0.00000
  vdW        -0.16198    -1.55424    -2.56031     0.31667     0.22746     0.18404
  Total       0.00002     0.00002     0.00002    -0.00000    -0.00000     0.00000
  in kB       0.00061     0.00061     0.00061    -0.00000    -0.00000     0.00000

 VOLUME and BASIS-vectors are now :
  energy-cutoff  :      650.00
  volume of cell :       45.02
      direct lattice vectors                 reciprocal lattice vectors
     3.557413433  0.000000000  0.000000000     0.281103116  0.000000000 -0.000000000
    -0.000000000  3.557413433  0.000000000    -0.000000000  0.281103116  0.000000000
     0.000000000 -0.000000000  3.557413433    -0.000000000 -0.000000000  0.281103116

  length of vectors
     3.557413433  3.557413433  3.557413433     0.281103116  0.281103116  0.281103116

 FORCES acting on ions
    electron-ion (+dipol)            ewald-force                    non-local-force                 convergence-correction
   -.619E-07 -.619E-07 -.619E-07   0.259E-05 0.259E-05 0.259E-05   0.347E-17 0.165E-16 -.954E-17   -.309E-13 -.324E-13 -.280E-13
   -.619E-07 -.619E-07 -.619E-07   0.259E-05 0.259E-05 0.259E-05   -.338E-16 0.304E-17 -.243E-16   -.309E-13 -.317E-13 -.258E-13
   -.619E-07 -.619E-07 -.619E-07   0.259E-05 0.259E-05 0.259E-05   0.257E-21 -.338E-16 -.130E-16   -.332E-13 -.324E-13 -.276E-13
   -.619E-07 -.619E-07 -.619E-07   0.259E-05 0.259E-05 0.259E-05   0.113E-16 0.160E-16 -.173E-17   -.331E-13 -.335E-13 -.259E-13
   -.147E-04 -.126E-06 -.147E-04   -.105E-04 0.528E-05 -.105E-04   0.121E-16 0.911E-17 0.243E-16   0.109E-11 -.156E-12 0.109E-11
   -.126E-06 -.126E-06 -.126E-06   0.528E-05 0.528E-05 0.528E-05   0.607E-17 0.173E-16 0.173E-17   -.166E-12 -.156E-12 -.149E-12
   -.126E-06 -.147E-04 -.147E-04   0.528E-05 -.105E-04 -.105E-04   -.295E-16 -.256E-16 -.347E-17   -.166E-12 0.108E-11 0.109E-11
   -.147E-04 -.147E-04 -.126E-06   -.105E-04 -.105E-04 0.528E-05   0.434E-17 0.954E-17 0.156E-16   0.109E-11 0.108E-11 -.148E-12
   -.300E-04 -.300E-04 -.300E-04   0.212E-13 -.748E-14 -.798E-16   -.260E-16 0.121E-16 -.104E-16   0.173E-11 0.172E-11 0.177E-11

 POSITION                                       TOTAL-FORCE (eV/Angst)
     -0.00000     -0.00000     -0.00000        -0.000000      0.000000     -0.000000
     -0.00000      1.77871      1.77871        -0.000000     -0.000000     -0.000000
      1.77871      1.77871      0.00000        -0.000000      0.000000     -0.000000
      1.77871     -0.00000      1.77871        -0.000000      0.000000     -0.000000
      2.66806      0.88935      2.66806         0.000000     -0.000000      0.000000
      0.88935      0.88935      0.88935         0.000000      0.000000      0.000000
      0.88935      2.66806      2.66806         0.000000     -0.000000      0.000000
      2.66806      2.66806      0.88935        -0.000000      0.000000      0.000000
    total drift:                               -0.000030     -0.000030     -0.000030

  FREE ENERGIE OF THE ION-ELECTRON SYSTEM (eV)
  free  energy   TOTEN  =       -74.51918814 eV

  energy  without entropy=      -74.51918814  energy(sigma->0) =      -74.51918814

 d Force = 0.0000000E+00[ 0.000E+00, 0.000E+00]  d Energy = 0.4153848E-06-0.415E-06
 d Force = 0.0000000E+00[ 0.000E+00, 0.000E+00]  d Ewald  =-0.7524817E-03 0.752E-03

 reached required accuracy - stopping structural energy minimisation
 BZINTS: Fermi energy:  9.909438; 32.000000 electrons
         Band energy:  26.204249;  BLOECHL correction:  0.000000